#######################
Slurm job id: 17497813_317
Running on machine: p77
Running cmd: /nfs/shared/static-builds/gurobi1202 SOFTMEMLIMIT=125 MIPFocus=0 Presolve=2 TimeLimit=300 seed=6 /nfs/models/miplib2010/k16x240.mps.bz2
#######################
Set parameter TimeLimit to value 300
Set parameter SoftMemLimit to value 125
Set parameter LogFile to value 1202-MIPFocus0-Presolve2-TimeLimit300-k16x240-6.log
Set parameter Presolve to value 2
Set parameter Seed to value 6
Using license file /opt/gurobi/gurobi.lic

Gurobi Optimizer version 12.0.2 build v12.0.2rc0 (linux64 - "Ubuntu 22.04.4 LTS")
Copyright (c) 2025, Gurobi Optimization, LLC

Read MPS format model from file /nfs/models/miplib2010/k16x240.mps.bz2
Reading time = 0.00 seconds
k16x240: 256 rows, 480 columns, 960 nonzeros

Using Gurobi shared library /nfs/shared/static-builds/gurobi1202

CPU model: Intel(R) Xeon(R) E-2388G CPU @ 3.20GHz, instruction set [SSE2|AVX|AVX2|AVX512]
Thread count: 8 physical cores, 16 logical processors, using up to 16 threads

Non-default parameters:
TimeLimit  300
SoftMemLimit  125
Presolve  2
Seed  6

Optimize a model with 256 rows, 480 columns and 960 nonzeros
Model fingerprint: 0x4e80885f
Variable types: 240 continuous, 240 integer (240 binary)
Coefficient statistics:
  Matrix range     [1e+00, 1e+03]
  Objective range  [1e+00, 1e+03]
  Bounds range     [1e+00, 1e+03]
  RHS range        [4e+00, 4e+02]
Found heuristic solution: objective 19315.000000
Presolve time: 0.00s
Presolved: 256 rows, 480 columns, 960 nonzeros
Variable types: 240 continuous, 240 integer (240 binary)
Root relaxation presolve removed 241 rows and 240 columns
Root relaxation presolved: 15 rows, 240 columns, 450 nonzeros


Root relaxation: objective 2.769838e+03, 16 iterations, 0.00 seconds (0.00 work units)

    Nodes    |    Current Node    |     Objective Bounds      |     Work
 Expl Unexpl |  Obj  Depth IntInf | Incumbent    BestBd   Gap | It/Node Time

     0     0 2769.83800    0   14 19315.0000 2769.83800  85.7%     -    0s
H    0     0                    11359.000000 2769.83800  75.6%     -    0s
H    0     0                    11262.000000 2769.83800  75.4%     -    0s
H    0     0                    11244.000000 2769.83800  75.4%     -    0s
H    0     0                    11147.000000 2769.83800  75.2%     -    0s
     0     0 8079.31092    0   26 11147.0000 8079.31092  27.5%     -    0s
H    0     0                    11120.000000 8191.95805  26.3%     -    0s
H    0     0                    11094.000000 8191.95805  26.2%     -    0s
H    0     0                    10909.000000 8191.95805  24.9%     -    0s
H    0     0                    10831.000000 8191.95805  24.4%     -    0s
     0     0 8191.95805    0   26 10831.0000 8191.95805  24.4%     -    0s
     0     0 8528.16906    0   24 10831.0000 8528.16906  21.3%     -    0s
     0     0 8540.71383    0   29 10831.0000 8540.71383  21.1%     -    0s
     0     0 8548.03675    0   29 10831.0000 8548.03675  21.1%     -    0s
     0     0 8706.61427    0   36 10831.0000 8706.61427  19.6%     -    0s
H    0     0                    10829.000000 8707.60070  19.6%     -    0s
H    0     0                    10765.000000 8707.60070  19.1%     -    0s
     0     0 8791.00767    0   30 10765.0000 8791.00767  18.3%     -    0s
     0     0 8794.73497    0   30 10765.0000 8794.73497  18.3%     -    0s
     0     0 8864.54149    0   30 10765.0000 8864.54149  17.7%     -    0s
     0     0 8876.58253    0   31 10765.0000 8876.58253  17.5%     -    0s
     0     0 8881.03586    0   32 10765.0000 8881.03586  17.5%     -    0s
     0     0 9023.95669    0   33 10765.0000 9023.95669  16.2%     -    0s
H    0     0                    10681.000000 9024.56351  15.5%     -    0s
     0     0 9041.04359    0   37 10681.0000 9041.04359  15.4%     -    0s
     0     0 9051.91028    0   41 10681.0000 9051.91028  15.3%     -    0s
     0     0 9056.67673    0   38 10681.0000 9056.67673  15.2%     -    0s
     0     0 9103.46651    0   40 10681.0000 9103.46651  14.8%     -    0s
     0     0 9104.32065    0   40 10681.0000 9104.32065  14.8%     -    0s
     0     2 9104.32065    0   40 10681.0000 9104.32065  14.8%     -    0s
H   42    64                    10678.000000 9170.73048  14.1%  35.9    0s
H 2107  1309                    10674.000000 9442.08614  11.5%  17.0    0s
 36669 12577 10384.8861   30   14 10674.0000 10031.4077  6.02%  23.4    5s
 75382 16470     cutoff   31      10674.0000 10212.1624  4.33%  25.1   10s
 115073 11305     cutoff   39      10674.0000 10389.5563  2.66%  25.5   15s

Cutting planes:
  Lift-and-project: 18
  Cover: 83
  Implied bound: 26
  Dual implied bound: 27
  MIR: 165
  Mixing: 1
  Flow cover: 274
  Flow path: 57
  Inf proof: 3
  Zero half: 8
  Network: 56
  Relax-and-lift: 1

Explored 138791 nodes (3426668 simplex iterations) in 17.54 seconds (24.64 work units)
Thread count was 16 (of 16 available processors)

Solution count 10: 10674 10678 10681 ... 11147

Optimal solution found (tolerance 1.00e-04)
Best objective 1.067400000000e+04, best bound 1.067400000000e+04, gap 0.0000%
